%nprocshared=20
%mem=5GB
# m062x/6-311+g(2df,2p) opt=(ts,calcfc,noeigentest)

[H]+[O]O_[H][H]+[O][O]

0   3
O        -0.343741  -0.368726  -0.012139
O         0.736748   0.207721   0.000438
H        -1.221951   0.339173   0.205607
H        -1.922104   0.948867  -0.112000

1 2 F
2 3 F
2 4 F

