%nprocshared=20
%mem=5GB
# m062x/6-311+g(2df,2p) Opt=(ModRedun,Loose) Int(Grid=SG1)

[H]+[O]O_[H][H]+[O][O]

0   3
O        -0.494300   0.574500  -0.035100
O        -1.405600  -0.384900  -0.021200
H         0.478000  -0.013400   0.134600
H         1.421900  -0.176200  -0.078400

1 3 F
1 4 F
3 4 F

