%nprocshared=20
%mem=5GB
# m062x/6-311+g(2df,2p) Opt=(ModRedun,Loose) Int(Grid=SG1)

[O]CC1C=CC=CC=1+[O]O_OO+[O][CH]C1C=CC=CC=1

0   3
C        -1.244000  -1.443400   0.203300
C         0.148900  -0.996900   0.160800
C         0.732000  -0.785400  -1.066000
C         0.617300  -0.238700   1.215500
C         1.761900   0.129300  -1.247800
C         2.243800   0.814800  -0.157800
C         1.618700   0.712000   1.062500
O        -1.726000  -1.738400   1.451700
H        -1.915000  -0.355000  -0.114600
H        -1.554400  -2.110100  -0.601800
H         0.187900  -1.059800  -1.964900
H         2.116600   0.432800  -2.219900
H         3.101300   1.455900  -0.218100
H         2.040600   1.200800   1.938500
H         0.296900  -0.559700   2.205400
O        -2.961200   1.838900  -0.519300
O        -2.618400   0.558300  -0.550700
H        -2.846800   2.144700   0.423300

1 9 F
1 17 F
9 17 F

