%nprocshared=20
%mem=5GB
# m062x/6-311+g(2df,2p) opt=(ts,calcfc,noeigentest)

[O]C1C=CC=C1+[O][O]_[O]O+[O][C]1C=CC=C1

0   4
C        -0.385275   0.666569   0.090689
C        -0.855410  -0.153548   1.196901
C        -1.062858   0.239637  -1.123196
C        -1.599162  -1.114978   0.646736
C        -1.816380  -0.803648  -0.771904
O        -0.283358   2.001484   0.307162
H         0.858446   0.278084  -0.085273
H        -0.449616  -0.251217   2.182382
H        -1.103197   0.773615  -2.057201
H        -1.807286  -2.107131   1.051878
H        -2.421305  -1.406086  -1.449142
O         2.028928  -0.062320  -0.247061
O         3.159113  -0.725596  -0.044850

1 2 F
1 3 F
1 4 F
1 5 F
1 6 F
1 8 F
1 9 F
1 10 F
1 11 F
1 13 F
2 3 F
2 4 F
2 5 F
2 6 F
2 7 F
2 8 F
2 9 F
2 10 F
2 11 F
2 12 F
2 13 F
3 4 F
3 5 F
3 6 F
3 7 F
3 8 F
3 9 F
3 10 F
3 11 F
3 12 F
3 13 F
4 5 F
4 6 F
4 7 F
4 8 F
4 9 F
4 10 F
4 11 F
4 12 F
4 13 F
5 6 F
5 7 F
5 8 F
5 9 F
5 10 F
5 11 F
5 12 F
5 13 F
6 7 F
6 8 F
6 9 F
6 10 F
6 11 F
6 12 F
6 13 F
7 8 F
7 9 F
7 10 F
7 11 F
7 13 F
8 9 F
8 10 F
8 11 F
8 12 F
8 13 F
9 10 F
9 11 F
9 12 F
9 13 F
10 11 F
10 12 F
10 13 F
11 12 F
11 13 F
12 13 F

