%nprocshared=20
%mem=5GB
%chk=/gss_gpfs_scratch/harms.n/QMscratch/[O]CC1C=CC=CC=1+[O]O_OO+[O][CH]C1C=CC=CC=1
# m062x/6-311+g(2df,2p) opt=(ts,calcfc,noeigentest) freq

[O]CC1C=CC=CC=1+[O]O_OO+[O][CH]C1C=CC=CC=1

0   3
C        -1.028177   0.559503   1.033718
C         0.368082   0.236905   0.531522
C         0.871229  -1.057050   0.632809
C         1.069292   1.161599  -0.238181
C         2.168789  -1.341036   0.225138
C         2.929870  -0.355557  -0.385775
C         2.375281   0.897429  -0.624303
O        -1.724827   1.511149   0.265002
H        -1.589088  -0.372995   1.136720
H        -0.950914   0.984591   2.040189
H         0.268057  -1.828203   1.097971
H         2.555481  -2.347342   0.314710
H         3.937326  -0.573411  -0.713860
H         2.903275   1.608513  -1.245792
H         0.598908   2.102892  -0.488283
O        -2.508924  -0.526111  -1.116477
O        -3.030109  -1.138067  -0.238287
H        -2.138356   1.039434  -0.473127

