%nprocshared=20
%mem=5GB
# m062x/6-311+g(2df,2p) opt=(ts,calcfc,noeigentest)

[O]CC1C=CC=CC=1+[O]O_OO+[O][CH]C1C=CC=CC=1

0   3
C         1.352756  -0.965139   0.682819
C        -0.073786  -0.594179   0.384845
C        -0.854127   0.075802   1.331626
C        -0.599012  -0.810288  -0.893868
C        -2.127526   0.516312   1.009653
C        -2.642022   0.305077  -0.266317
C        -1.876178  -0.360734  -1.213400
O         2.021076  -1.652460  -0.183473
H         1.857006   0.235932   0.485125
H         1.553837  -1.123604   1.755900
H        -0.454388   0.242865   2.324623
H        -2.723223   1.029689   1.751444
H        -3.634116   0.655311  -0.513922
H        -2.275988  -0.538874  -2.202059
H         0.006126  -1.352510  -1.608685
O         1.474487   1.657203  -0.864876
O         2.232206   1.357088   0.136823
H         0.767962   0.955441  -0.912375

1 2 F
1 3 F
1 4 F
1 5 F
1 6 F
1 7 F
1 8 F
1 10 F
1 11 F
1 12 F
1 13 F
1 14 F
1 15 F
1 16 F
1 18 F
2 3 F
2 4 F
2 5 F
2 6 F
2 7 F
2 8 F
2 9 F
2 10 F
2 11 F
2 12 F
2 13 F
2 14 F
2 15 F
2 16 F
2 17 F
2 18 F
3 4 F
3 5 F
3 6 F
3 7 F
3 8 F
3 9 F
3 10 F
3 11 F
3 12 F
3 13 F
3 14 F
3 15 F
3 16 F
3 17 F
3 18 F
4 5 F
4 6 F
4 7 F
4 8 F
4 9 F
4 10 F
4 11 F
4 12 F
4 13 F
4 14 F
4 15 F
4 16 F
4 17 F
4 18 F
5 6 F
5 7 F
5 8 F
5 9 F
5 10 F
5 11 F
5 12 F
5 13 F
5 14 F
5 15 F
5 16 F
5 17 F
5 18 F
6 7 F
6 8 F
6 9 F
6 10 F
6 11 F
6 12 F
6 13 F
6 14 F
6 15 F
6 16 F
6 17 F
6 18 F
7 8 F
7 9 F
7 10 F
7 11 F
7 12 F
7 13 F
7 14 F
7 15 F
7 16 F
7 17 F
7 18 F
8 9 F
8 10 F
8 11 F
8 12 F
8 13 F
8 14 F
8 15 F
8 16 F
8 17 F
8 18 F
9 10 F
9 11 F
9 12 F
9 13 F
9 14 F
9 15 F
9 16 F
9 18 F
10 11 F
10 12 F
10 13 F
10 14 F
10 15 F
10 16 F
10 17 F
10 18 F
11 12 F
11 13 F
11 14 F
11 15 F
11 16 F
11 17 F
11 18 F
12 13 F
12 14 F
12 15 F
12 16 F
12 17 F
12 18 F
13 14 F
13 15 F
13 16 F
13 17 F
13 18 F
14 15 F
14 16 F
14 17 F
14 18 F
15 16 F
15 17 F
15 18 F
16 17 F
16 18 F
17 18 F

