%nprocshared=20
%mem=5GB
# m062x/6-311+g(2df,2p) Opt=(ModRedun,Loose) Int(Grid=SG1)

[O]C1C=CC=C1+[O][O]_[O]O+[O][C]1C=CC=C1

0   4
C         0.293700  -0.537200  -0.633200
C        -0.213400   0.773800  -1.009300
C        -0.632600  -1.138200   0.313200
C        -1.248400   1.009300  -0.200900
C        -1.572900  -0.218600   0.536400
O         0.764700  -1.329400  -1.628100
H         1.358700  -0.269300   0.089800
H         0.286300   1.565400  -1.528000
H        -0.663400  -2.171900   0.612600
H        -1.646500   1.979500   0.102500
H        -2.400400  -0.314800   1.238900
O         2.368000  -0.032500   0.751100
O         3.306200   0.683900   1.355000

1 7 F
1 12 F
7 12 F

