%nprocshared=20
%mem=5GB
# m062x/6-311+g(2df,2p) opt=(ts,calcfc,noeigentest)

[O]O+[O]O_OO+[O][O]

0   3
O         1.208416   0.574852  -0.007946
O         1.317700  -0.632548   0.013527
H         0.044969   0.893381  -0.009183
O        -1.213344  -0.652373  -0.130627
O        -1.146265   0.720570   0.030785
H        -1.377030  -0.977390   0.763263

1 2 F
1 4 F
1 6 F
2 3 F
2 4 F
2 5 F
2 6 F
3 4 F
3 6 F
4 5 F
4 6 F
5 6 F

