%nprocshared=20
%mem=5GB
# m062x/6-311+g(2df,2p) Opt=(ModRedun,Loose) Int(Grid=SG1)

[O]O+[O]O_OO+[O][O]

0   3
O         1.525700  -0.010300   0.586400
O         2.178200   0.372700  -0.497800
H         0.532100  -0.459500   0.070600
O        -1.864600  -0.117400  -0.110900
O        -0.649200  -0.646300  -0.071300
H        -1.722200   0.860700   0.023000

1 3 F
1 5 F
3 5 F

