%nprocshared=20
%mem=5GB
# m062x/6-311+g(2df,2p) opt=(ts,calcfc,noeigentest)

[O]O+[O]OC=O_OO+[O]O[C]=O

0   3
C        -0.547548   0.646627  -0.029877
O        -0.787457  -0.739177  -0.205399
O        -1.345651   1.451310   0.230858
H         0.809466   0.757578  -0.234339
O        -2.032562  -1.072752   0.010900
O         2.263346  -0.493643   0.474098
O         1.941714   0.441525  -0.459832
H         2.160711  -1.335443   0.008606

1 2 F
1 3 F
1 5 F
1 6 F
1 8 F
2 3 F
2 4 F
2 5 F
2 6 F
2 7 F
2 8 F
3 4 F
3 5 F
3 6 F
3 7 F
3 8 F
4 5 F
4 6 F
4 8 F
5 6 F
5 7 F
5 8 F
6 7 F
6 8 F
7 8 F

