%nprocshared=20
%mem=5GB
# m062x/6-311+g(2df,2p) opt=(ts,calcfc,noeigentest)

[O]O+[O]OCO_OO+[O]O[CH]O

0   3
C         0.822017  -0.637790   0.513512
O         1.425350   0.667885   0.382158
O         0.905229  -1.363066  -0.621879
H        -0.432252  -0.385171   0.756723
H         1.318881  -1.126084   1.346578
O         0.725336   1.412353  -0.420121
H         0.308549  -0.992240  -1.285904
O        -1.950733   0.055194  -0.528644
O        -1.656646  -0.103314   0.789785
H        -1.715572   0.977817  -0.708867

1 2 F
1 3 F
1 5 F
1 6 F
1 7 F
1 8 F
1 10 F
2 3 F
2 4 F
2 5 F
2 6 F
2 7 F
2 8 F
2 9 F
2 10 F
3 4 F
3 5 F
3 6 F
3 7 F
3 8 F
3 9 F
3 10 F
4 5 F
4 6 F
4 7 F
4 8 F
4 10 F
5 6 F
5 7 F
5 8 F
5 9 F
5 10 F
6 7 F
6 8 F
6 9 F
6 10 F
7 8 F
7 9 F
7 10 F
8 9 F
8 10 F
9 10 F

