%nprocshared=20
%mem=5GB
# m062x/6-311+g(2df,2p) Opt=(ModRedun,Loose) Int(Grid=SG1)

[O]O+[O]OC=O_OO+[O]O[C]=O

0   3
C        -1.164600  -0.455000  -0.167000
O        -1.439200   0.872900  -0.479300
O        -1.642700  -0.894500   0.898600
H         0.195700  -0.480800   0.044000
O        -2.475600   1.502500   0.073500
O         2.611800  -0.377600  -0.069400
O         1.347800  -0.778400  -0.085700
H         2.566800   0.610800  -0.214900

1 4 F
1 7 F
4 7 F

