%nprocshared=20
%mem=5GB
# m062x/6-311+g(2df,2p) opt=(ts,calcfc,noeigentest)

[O]O+[O]OCCCCO_OO+[O]OC[CH]CCO

0   3
C         0.171768  -0.818982   0.610002
C        -0.103698   0.647808   0.818016
C         1.183779  -1.243581  -0.415172
C        -0.398103   1.426858  -0.459525
O         2.540105  -0.934863   0.010717
O        -0.732086   2.769940  -0.175394
H        -0.953944  -1.297410   0.085967
H         0.249883  -1.388908   1.533865
H        -0.953981   0.764634   1.492182
H         0.760222   1.100546   1.321144
H         1.194224  -2.325083  -0.536279
H         1.036474  -0.765294  -1.380846
H        -1.263463   0.996647  -0.963437
H         0.457109   1.378016  -1.138111
O         2.785331   0.334532  -0.048606
H         0.052845   3.223812   0.138363
O        -2.890036  -0.651025   0.033189
O        -2.002892  -1.606452  -0.404688
H        -3.305225  -1.056635   0.805482

1 2 F
1 3 F
1 4 F
1 5 F
1 6 F
1 8 F
1 9 F
1 10 F
1 11 F
1 12 F
1 13 F
1 14 F
1 15 F
1 16 F
1 17 F
1 19 F
2 3 F
2 4 F
2 5 F
2 6 F
2 7 F
2 8 F
2 9 F
2 10 F
2 11 F
2 12 F
2 13 F
2 14 F
2 15 F
2 16 F
2 17 F
2 18 F
2 19 F
3 4 F
3 5 F
3 6 F
3 7 F
3 8 F
3 9 F
3 10 F
3 11 F
3 12 F
3 13 F
3 14 F
3 15 F
3 16 F
3 17 F
3 18 F
3 19 F
4 5 F
4 6 F
4 7 F
4 8 F
4 9 F
4 10 F
4 11 F
4 12 F
4 13 F
4 14 F
4 15 F
4 16 F
4 17 F
4 18 F
4 19 F
5 6 F
5 7 F
5 8 F
5 9 F
5 10 F
5 11 F
5 12 F
5 13 F
5 14 F
5 15 F
5 16 F
5 17 F
5 18 F
5 19 F
6 7 F
6 8 F
6 9 F
6 10 F
6 11 F
6 12 F
6 13 F
6 14 F
6 15 F
6 16 F
6 17 F
6 18 F
6 19 F
7 8 F
7 9 F
7 10 F
7 11 F
7 12 F
7 13 F
7 14 F
7 15 F
7 16 F
7 17 F
7 19 F
8 9 F
8 10 F
8 11 F
8 12 F
8 13 F
8 14 F
8 15 F
8 16 F
8 17 F
8 18 F
8 19 F
9 10 F
9 11 F
9 12 F
9 13 F
9 14 F
9 15 F
9 16 F
9 17 F
9 18 F
9 19 F
10 11 F
10 12 F
10 13 F
10 14 F
10 15 F
10 16 F
10 17 F
10 18 F
10 19 F
11 12 F
11 13 F
11 14 F
11 15 F
11 16 F
11 17 F
11 18 F
11 19 F
12 13 F
12 14 F
12 15 F
12 16 F
12 17 F
12 18 F
12 19 F
13 14 F
13 15 F
13 16 F
13 17 F
13 18 F
13 19 F
14 15 F
14 16 F
14 17 F
14 18 F
14 19 F
15 16 F
15 17 F
15 18 F
15 19 F
16 17 F
16 18 F
16 19 F
17 18 F
17 19 F
18 19 F

