%nprocshared=20
%mem=5GB
# m062x/6-311+g(2df,2p) Opt=(ModRedun,Loose) Int(Grid=SG1)

[O]O+[O]OCO_OO+[O]O[CH]O

0   3
C        -1.051800  -0.471000  -0.228000
O        -1.747100   0.540800  -0.844700
O        -1.193200  -0.526300   1.137200
H         0.191100  -0.114600  -0.384000
H        -1.061600  -1.434300  -0.744200
O        -1.684100   1.605700  -0.089700
H        -0.326700  -0.476300   1.627100
O         2.651600  -0.017000  -0.162000
O         1.412500   0.049100  -0.631100
H         2.809400   0.843800   0.319400

1 4 F
1 9 F
4 9 F

