%nprocshared=20
%mem=5GB
# m062x/6-311+g(2df,2p) opt=(ts,calcfc,noeigentest)

[OH]+[O]O_O+[O][O]

0   3
O         0.609223   0.581445   0.020804
O         1.305525  -0.465807   0.007298
H        -0.321150   0.370779  -0.327831
O        -1.651777  -0.152718  -0.094837
H        -1.782621  -0.074141   0.861704

1 2 F
1 5 F
2 3 F
2 4 F
2 5 F
3 5 F
4 5 F

