%nprocshared=20
%mem=5GB
%chk=/gss_gpfs_scratch/harms.n/QMscratch/[OH]+[O]OC=O_O=COO+[O]
# m062x/6-311+g(2df,2p) irc=(calcall,report=read) geom=allcheck guess=check nosymm

0   3


