%nprocshared=20
%mem=5GB
# m062x/6-311+g(2df,2p) opt=(ts,calcfc,noeigentest)

[OH]+[O][O]_[O]+[O]O

0   4
O        -0.457533   0.403471  -0.014944
O        -1.402580  -0.289594  -0.001784
O         1.791239  -0.128064  -0.014963
H         0.550992   0.113487   0.253528

1 2 F
1 3 F
1 4 F
2 3 F
2 4 F

