%nprocshared=20
%mem=5GB
# m062x/6-311+g(2df,2p) Opt=(ModRedun,Loose) Int(Grid=SG1)

[OH]+[O][O]_[O]+[O]O

0   4
O         0.522400   0.170300   0.119100
O         1.771500  -0.180600  -0.039600
O        -1.757700  -0.193600   0.028400
H        -0.536200   0.203900  -0.107900

3 4 F
3 1 F
4 1 F

