%nprocshared=20
%mem=5GB
# m062x/6-311+g(2df,2p) Opt=(ModRedun,Loose) Int(Grid=SG1)

[OH]+[O]O_O+[O][O]

0   3
O         1.035500   0.374500  -0.327800
O         2.068300  -0.107600   0.330700
H         0.208700  -0.190800  -0.159400
O        -1.228900  -0.283800  -0.005900
H        -2.083600   0.207700   0.162300

1 3 F
1 4 F
3 4 F

