%nprocshared=20
%mem=5GB
# m062x/6-311+g(2df,2p) opt=(verytight,gdiis) freq IOP(2/16=3)

InChI=1S/C3H3O3/c4-1-2-6-3-5/h3H,2H2/u1

0   2
C         0.7154   -0.3896   -0.1760
C        -1.6737    0.2479   -0.2352
O        -0.3268    0.5357   -0.4671
C         2.0330    0.2096   -0.5401
H         0.7103   -0.6401    0.9069
H         0.5692   -1.3179   -0.7680
O        -2.0280   -0.8602    0.2492
H        -2.4239    0.9887   -0.4754
O         2.4245    1.2259    0.0107

