%nprocshared=20
%mem=5GB
# m062x/6-311+g(2df,2p) opt freq IOP(2/16=3)

InChI=1S/C7H15O2/c1-3-5-7(9-8)6-4-2/h8H,3-6H2,1-2H3/u7

0   2
C        -2.5509    0.0509   -0.2907
C         2.4646    0.5116   -0.0418
C        -1.2507   -0.6222    0.1626
C         1.2701   -0.3925    0.2813
C        -3.7283   -0.9168   -0.2146
C         3.7843   -0.2338    0.1363
C        -0.0573    0.3326    0.0236
O        -0.1971    1.4114    0.9073
O        -0.3543    2.4667    0.1333
H        -2.7687    0.9277    0.3570
H        -2.4422    0.4052   -1.3391
H         2.4627    1.3954    0.6321
H         2.3904    0.8682   -1.0924
H        -1.0752   -1.5200   -0.4700
H        -1.3447   -0.9508    1.2213
H         1.3221   -1.2965   -0.3645
H         1.3188   -0.7164    1.3445
H        -3.8696   -1.2710    0.8288
H        -4.6552   -0.4010   -0.5431
H        -3.5541   -1.7903   -0.8785
H         3.8902   -0.5852    1.1848
H         3.8309   -1.1061   -0.5499
H         4.6300    0.4468   -0.0975
H         0.4842    2.9858    0.2364

