%nprocshared=20
%mem=5GB
# m062x/6-311+g(2df,2p) opt=(verytight,gdiis) freq IOP(2/16=3)

InChI=1S/C5H8O/c1-3-5(2)4-6/h3-4H,1-2H3

0   1
C        -1.1834   -0.8773    0.0367
C         1.7224   -0.6705    0.5092
C        -0.4267    0.4084   -0.1961
C         0.8981    0.4849    0.0244
C        -1.1376    1.6133   -0.6745
H         2.7819   -0.3555    0.6122
H         1.3586   -1.0117    1.5010
H         1.6734   -1.5082   -0.2176
H        -0.7766   -1.6794   -0.6143
H        -2.2637   -0.7707   -0.1919
H        -1.0905   -1.1843    1.0997
H         1.4166    1.4210   -0.1511
O        -2.3773    1.5942   -0.8960
H        -0.5952    2.5358   -0.8416

