%nprocshared=20
%mem=5GB
# m062x/6-311+g(2df,2p) opt=(verytight,gdiis) freq IOP(2/16=3)

InChI=1S/C5H9O/c1-2-4-6-5-3-1/h4H,1-3,5H2/u4

0   2
C         0.5969   -1.0331    0.0641
C        -0.7195   -0.7914   -0.6827
C         1.3628    0.2802    0.2433
C        -1.4753    0.3866   -0.0504
C         0.4189    1.3407    0.8150
O        -0.6728    1.5498   -0.0537
H        -1.3475   -1.7072   -0.6421
H        -0.5041   -0.5601   -1.7489
H         0.3773   -1.4698    1.0635
H         1.2215   -1.7584   -0.5002
H         2.2142    0.1246    0.9394
H         1.7605    0.6237   -0.7367
H        -1.8107    0.1317    0.9821
H        -2.3876    0.5862   -0.6510
H         0.9653    2.2965    0.9582

