%nprocshared=20
%mem=5GB
# m062x/6-311+g(2df,2p) opt=(verytight,gdiis) freq IOP(2/16=3)

InChI=1S/C6H11O/c1-4-6(7)5(2)3/h5H,1,4H2,2-3H3/u1

0   2
C        -0.6573    0.1443    0.5067
C         1.6984   -0.8204   -0.1198
C        -1.2196    1.3970   -0.1726
C        -1.7878   -0.7588    1.0098
C         0.2445   -0.6136   -0.4422
C         2.4349    0.5111   -0.0980
H        -0.0669    0.4722    1.3910
H         1.7864   -1.3083    0.8741
H         2.1712   -1.4840   -0.8766
H        -1.8387    1.9755    0.5458
H        -0.3883    2.0488   -0.5173
H        -1.8484    1.1239   -1.0474
H        -2.4139   -0.2119    1.7468
H        -2.4338   -1.0899    0.1682
H        -1.3640   -1.6549    1.5117
O        -0.2114   -1.0749   -1.4789
H         2.4007    0.9896   -1.1001
H         3.4939    0.3544    0.1967

