%nprocshared=20
%mem=5GB
# m062x/6-311+g(2df,2p) opt=(verytight,gdiis) freq IOP(2/16=3)

InChI=1S/C3H4O2/c1-3(5)2-4/h2H,1H3

0   1
C        -1.1668    0.0669   -0.0847
C         0.1878   -0.0641    0.5325
C         1.3864   -0.0369   -0.3127
H        -1.2415    1.0367   -0.6198
H        -1.3311   -0.7620   -0.8048
H        -1.9569    0.0260    0.6951
O         0.2987   -0.1980    1.7808
O         2.5320   -0.1466    0.1984
H         1.2914    0.0780   -1.3847

