%nprocshared=20
%mem=5GB
# m062x/6-311+g(2df,2p) opt=(verytight,gdiis) freq IOP(2/16=3)

InChI=1S/C3H6O2/c4-2-1-3-5/h2,5H,1,3H2

0   1
C        -0.4333   -0.2525    0.5243
C         0.8362    0.1310   -0.2306
C        -1.6476    0.0400   -0.3047
O         1.9544   -0.1534    0.5627
H        -0.4786    0.3127    1.4814
H        -0.4132   -1.3382    0.7591
H         0.8957   -0.4479   -1.1801
H         0.8137    1.2188   -0.4680
O        -2.4906    0.8301    0.0891
H        -1.7829   -0.4553   -1.2610
H         2.7463    0.1146    0.0279

