%nprocshared=20
%mem=5GB
# m062x/6-311+g(2df,2p) opt=(verytight,gdiis) freq IOP(2/16=3)

InChI=1S/C7H16O2/c1-6(9-8)5-7(2,3)4/h6,8H,5H2,1-4H3

0   1
C        -1.0636   -0.2092   -0.6070
C         1.4050    0.4053    0.1083
C        -0.1000    0.7637    0.1442
C        -0.9716   -1.6452   -0.0506
C        -2.5074    0.2985   -0.4008
C        -0.7684   -0.2256   -2.1227
C         2.2355    1.6007    0.5934
O         1.6472   -0.6985    0.9520
O         2.7835   -1.2436    0.5543
H         1.7050    0.1894   -0.9415
H        -0.4127    0.8387    1.2102
H        -0.2328    1.7793   -0.2926
H         3.3175    1.3524    0.5638
H         2.0674    2.4810   -0.0632
H         1.9598    1.8670    1.6363
H        -1.7726   -2.2841   -0.4818
H        -1.0832   -1.6452    1.0550
H        -0.0024   -2.1164   -0.3145
H        -2.7688    0.3112    0.6796
H        -3.2382   -0.3559   -0.9239
H        -2.6222    1.3299   -0.7994
H         0.2042   -0.7118   -2.3431
H        -0.7497    0.8081   -2.5304
H        -1.5504   -0.7990   -2.6663
H         2.5187   -2.0908    0.1124

