%nprocshared=20
%mem=5GB
# m062x/6-311+g(2df,2p) opt=(verytight,gdiis) freq IOP(2/16=3)

InChI=1S/C2H4O/c1-3-2/h1-2H2/u1,2

0   3
C        -1.1049   -0.0927   -0.6029
C         1.1056   -0.1254   -0.5813
O        -0.0010    0.2949    0.1574
H        -1.7029    0.8029   -0.8717
H        -1.7349   -0.7906   -0.0128
H         1.7031   -0.8414    0.0207
H         1.7350    0.7521   -0.8381

