%nprocshared=20
%mem=5GB
# m062x/6-311+g(2df,2p) opt=(verytight,gdiis) freq IOP(2/16=3)

InChI=1S/C4H8O/c1-4(2)3-5/h3-4H,1-2H3

0   1
C         0.0810    0.2032   -0.3547
C         1.2223   -0.6588    0.1902
C        -1.2442   -0.5617   -0.3171
C        -0.0340    1.4699    0.4471
H         0.3089    0.4556   -1.4146
H         1.0296   -0.9463    1.2466
H         1.3282   -1.5819   -0.4189
H         2.1806   -0.0986    0.1398
H        -1.1710   -1.4835   -0.9329
H        -1.5058   -0.8464    0.7251
H        -2.0599    0.0684   -0.7324
O         0.1187    2.5567   -0.0875
H        -0.2543    1.4235    1.5093

