%nprocshared=20
%mem=5GB
# m062x/6-311+g(2df,2p) opt=(verytight,gdiis) freq IOP(2/16=3)

InChI=1S/C8H13/c1-4-6-7-8(3)5-2/h4-5H,1-2,6-7H2,3H3/u8

0   2
C         0.0970   -0.8258   -0.1363
C         1.1794    0.1696    0.2984
C        -2.3651   -1.3968    0.0511
C        -1.3097   -0.2998    0.1918
C         2.5570   -0.3785    0.0427
C        -1.6717    0.8831   -0.6628
C         3.6447    0.3295    0.3556
C        -1.9171    2.0700   -0.1072
H         0.1828   -1.0293   -1.2272
H         0.2613   -1.7823    0.4079
H         1.0632    1.1209   -0.2649
H         1.0687    0.3827    1.3844
H        -2.3931   -1.7828   -0.9908
H        -2.1353   -2.2345    0.7427
H        -3.3659   -0.9954    0.3172
H         2.6814   -1.3620   -0.4029
H        -1.7329    0.7713   -1.7417
H         3.5591    1.3160    0.8017
H         4.6321   -0.0783    0.1651
H        -1.8592    2.2038    0.9689
H        -2.1767    2.9187   -0.7315

