%nprocshared=20
%mem=5GB
# m062x/6-311+g(2df,2p) opt=(verytight,gdiis) freq IOP(2/16=3) IOP(4/21=2)

InChI=1S/C5H11O2/c1-5(2,3)4-7-6/h4H2,1-3H3/u6

0   2
C        -0.1871    0.0247    0.0624
C         1.2617    0.4024   -0.3291
C        -0.9165   -0.5983   -1.1451
C        -0.1745   -0.9811    1.2313
C        -0.9382    1.2971    0.5018
O         1.9786   -0.7358   -0.7362
H         1.7689    0.8726    0.5453
H         1.2370    1.1470   -1.1585
H        -0.4162   -1.5358   -1.4697
H        -0.9261    0.1078   -2.0034
H        -1.9687   -0.8429   -0.8831
H         0.3578   -0.5545    2.1089
H         0.3355   -1.9236    0.9377
H        -1.2117   -1.2334    1.5416
H        -0.4367    1.7666    1.3757
H        -0.9674    2.0404   -0.3241
H        -1.9845    1.0565    0.7898
O         3.1881   -0.3094   -1.0452

