%nprocshared=20
%mem=5GB
# m062x/6-311+g(2df,2p) opt=(verytight,gdiis) freq IOP(2/16=3)

InChI=1S/C4H6O/c1-2-4-5-3-1/h1-2H,3-4H2

0   1
C         1.1012   -0.5793    0.1268
C        -1.1603   -0.4640   -0.0503
C        -0.6003    0.9027   -0.1146
C         0.6989    0.8365   -0.0128
O        -0.0772   -1.3613    0.0998
H         1.7642   -0.8699   -0.7151
H         1.6299   -0.7299    1.0915
H        -1.7105   -0.6929   -0.9873
H        -1.8449   -0.5529    0.8194
H        -1.1686    1.8201   -0.2279
H         1.3676    1.6909   -0.0293

