%nprocshared=20
%mem=5GB
# m062x/6-311+g(2df,2p) opt=(verytight,gdiis) freq IOP(2/16=3)

InChI=1S/C3H8/c1-3-2/h3H2,1-2H3

0   1
C        -0.0244    0.1126    0.2252
C         1.2671   -0.0809   -0.5637
C        -1.2484   -0.0055   -0.6777
H        -0.0837   -0.6558    1.0258
H        -0.0159    1.1165    0.7021
H         1.3548    0.6928   -1.3561
H         2.1372    0.0107    0.1200
H         1.2866   -1.0887   -1.0307
H        -2.1698    0.1398   -0.0753
H        -1.2859   -1.0116   -1.1473
H        -1.2177    0.7699   -1.4727

