%nprocshared=20
%mem=5GB
# m062x/6-311+g(2df,2p) opt=(verytight,gdiis) freq IOP(2/16=3)

InChI=1S/C6H11O2/c1-4-8-6(7)5(2)3/h4H2,1-3H3/u5

0   2
C         2.0246   -0.5307   -0.2564
C         2.8230   -0.2981    1.0161
C        -2.3264   -0.7284    0.3555
C        -1.8048    1.6279   -0.4026
C        -1.7204    0.1409   -0.7460
C        -0.3094   -0.2652   -1.0371
O         0.6670   -0.1610   -0.0414
H         2.4552    0.0825   -1.0776
H         2.0815   -1.6056   -0.5344
H         3.8829   -0.5855    0.8519
H         2.4062   -0.9116    1.8428
H         2.7796    0.7748    1.3002
H        -3.3926   -0.4573    0.5061
H        -2.2793   -1.7983    0.0611
H        -1.7790   -0.5906    1.3129
H        -1.3869    2.2321   -1.2356
H        -2.8658    1.9223   -0.2595
H        -1.2385    1.8507    0.5275
O        -0.0169   -0.6989   -2.1838

