%nprocshared=20
%mem=5GB
# m062x/6-311+g(2df,2p) opt=(verytight,gdiis) freq IOP(2/16=3)

InChI=1S/C8H17/c1-3-5-7-8-6-4-2/h1,3-8H2,2H3/u1

0   2
C         1.7446   -0.2206   -0.0674
C        -0.7752   -0.4016    0.0277
C         0.4149    0.4094   -0.4986
C        -2.1049    0.2283   -0.4036
C         2.9339    0.5908   -0.5940
C        -3.2929   -0.5814    0.1232
C         4.2592   -0.0332   -0.1668
C        -4.6078    0.0414   -0.3256
H         2.8826    1.6297   -0.2011
H         2.8975    0.6320   -1.7045
H        -2.1516    0.2673   -1.5146
H        -2.1645    1.2674   -0.0103
H         1.7897   -0.2606    1.0435
H         1.8047   -1.2592   -0.4615
H        -0.7153   -1.4403   -0.3661
H        -0.7306   -0.4416    1.1386
H         0.3701    0.4495   -1.6095
H         0.3552    1.4481   -0.1047
H        -3.2669   -0.6167    1.2342
H        -3.2398   -1.6204   -0.2681
H         4.3473   -1.0651   -0.5686
H         4.3323   -0.0632    0.9413
H         5.1005    0.5745   -0.5617
H        -4.7240    1.0579    0.1073
H        -5.4588   -0.5924    0.0016

