%nprocshared=20
%mem=5GB
# m062x/6-311+g(2df,2p) opt=(verytight,gdiis) freq IOP(2/16=3)

InChI=1S/C7H13/c1-7-5-3-2-4-6-7/h2,7H,3-6H2,1H3/u2

0   2
C         0.8189   -0.3009    0.2708
C        -0.0995   -1.1056   -0.6701
C         0.4433    1.1940    0.2432
C        -1.5748   -0.8968   -0.3102
C        -1.0333    1.3971    0.6008
C         2.2886   -0.4936   -0.1175
C        -1.9315    0.5910   -0.3399
H         0.6881   -0.6822    1.3088
H         0.1392   -2.1886   -0.5900
H         0.0677   -0.7935   -1.7252
H         0.6368    1.6174   -0.7677
H         1.0691    1.7507    0.9745
H        -2.2106   -1.4360   -1.0442
H        -1.7807   -1.3139    0.7001
H        -1.2141    1.0862    1.6533
H        -1.2875    2.4744    0.5088
H         2.9453    0.0638    0.5841
H         2.5597   -1.5696   -0.0647
H         2.4738   -0.1271   -1.1502
H        -2.9985    0.7335   -0.0647

