%nprocshared=20
%mem=5GB
# m062x/6-311+g(2df,2p) opt=(verytight,gdiis) freq IOP(2/16=3)

InChI=1S/C6H11O/c1-6(2)4-3-5-7/h6H,3-4H2,1-2H3/u5

0   2
C        -0.7135    0.2824    0.2764
C         0.5600    0.2757   -0.5994
C         1.8178   -0.1168    0.1859
C        -1.8759    0.9252   -0.4915
C        -1.1072   -1.1326    0.7274
C         3.0318    0.0404   -0.6737
H        -0.5264    0.9006    1.1825
H         0.4246   -0.4190   -1.4583
H         0.7140    1.2979   -1.0130
H         1.7538   -1.1764    0.5108
H         1.9239    0.5328    1.0815
H        -2.1053    0.3458   -1.4118
H        -1.6184    1.9672   -0.7782
H        -2.7853    0.9621    0.1457
H        -0.3397   -1.5554    1.4075
H        -2.0653   -1.1042    1.2891
H        -1.2279   -1.8052   -0.1488
O         4.1390   -0.2206   -0.2320

