%nprocshared=20
%mem=5GB
# m062x/6-311+g(2df,2p) opt=(verytight,gdiis) freq IOP(2/16=3)

InChI=1S/C4H5O2/c1-3-4(5)6-2/h1,3H,2H3/u1

0   2
C         1.9449    0.0493   -0.6758
C        -0.2162   -0.2637    0.4896
C        -1.6670   -0.0536    0.5300
O         0.5361    0.2240   -0.5848
C        -2.2900    0.5979   -0.4440
H         2.1933   -1.0330   -0.6962
H         2.3111    0.5201   -1.6110
H         2.4446    0.5327    0.1903
H        -2.2392   -0.4355    1.3667
O         0.3431   -0.8871    1.4321
H        -3.3609    0.7489   -0.4071

